24

1 18 4
2 12 19
3 22 23
4 21 10
5 23 10
6 7 16
7 17 11
8 15 20
9 12 16
10 9 18
11 23 13
12 2 16
13 21 17
14 18 15
15 9 15
16 11 12
17 12 7
18 7 21
19 12 3
20 7 23
21 2 5
22 16 10
23 10 2
24 1 22

39
